SumColouring/JavaBacktracker/RandomInstances/30_0.50_3.col
c File: instances/30_0.50_3.col
c
c Description: Random graph of size 30 vertices and P(0.49999999999999994) of edges between any two vertices.
p col 30 435
e 1 2
e 1 3
e 1 5
e 1 11
e 1 13
e 1 16
e 1 17
e 1 18
e 1 21
e 1 22
e 1 24
e 1 27
e 1 28
e 1 29
e 1 30
e 2 9
e 2 10
e 2 11
e 2 12
e 2 13
e 2 14
e 2 15
e 2 17
e 2 18
e 2 19
e 2 22
e 2 23
e 2 24
e 2 29
e 3 4
e 3 7
e 3 8
e 3 9
e 3 10
e 3 11
e 3 12
e 3 15
e 3 16
e 3 17
e 3 18
e 3 19
e 3 21
e 3 22
e 3 24
e 3 26
e 3 27
e 3 28
e 3 29
e 3 30
e 4 5
e 4 6
e 4 8
e 4 12
e 4 14
e 4 15
e 4 21
e 4 22
e 4 25
e 4 27
e 4 28
e 4 29
e 5 7
e 5 9
e 5 11
e 5 12
e 5 13
e 5 15
e 5 16
e 5 17
e 5 18
e 5 19
e 5 20
e 5 21
e 5 22
e 5 23
e 5 25
e 5 26
e 5 28
e 6 8
e 6 10
e 6 15
e 6 17
e 6 18
e 6 20
e 6 23
e 6 25
e 6 28
e 6 29
e 6 30
e 7 10
e 7 13
e 7 17
e 7 19
e 7 20
e 7 21
e 7 22
e 7 25
e 7 26
e 7 28
e 7 29
e 8 13
e 8 17
e 8 18
e 8 20
e 8 23
e 8 25
e 8 26
e 8 27
e 8 28
e 8 30
e 9 10
e 9 11
e 9 12
e 9 13
e 9 14
e 9 15
e 9 20
e 9 21
e 9 22
e 9 24
e 9 26
e 9 27
e 9 29
e 10 14
e 10 15
e 10 16
e 10 17
e 10 19
e 10 20
e 10 22
e 10 28
e 10 29
e 11 15
e 11 16
e 11 21
e 11 22
e 11 23
e 11 24
e 11 26
e 11 27
e 11 29
e 11 30
e 12 15
e 12 18
e 12 22
e 12 24
e 12 25
e 12 26
e 12 30
e 13 14
e 13 22
e 13 30
e 14 21
e 14 23
e 14 24
e 14 25
e 14 26
e 14 28
e 14 29
e 15 16
e 15 17
e 15 23
e 15 26
e 15 27
e 15 28
e 15 29
e 15 30
e 16 17
e 16 18
e 16 20
e 16 21
e 16 23
e 16 24
e 16 25
e 16 26
e 16 29
e 17 18
e 17 25
e 17 26
e 17 27
e 17 28
e 17 29
e 18 19
e 18 20
e 18 23
e 18 25
e 18 26
e 18 27
e 18 28
e 19 21
e 19 23
e 19 25
e 19 26
e 19 27
e 19 30
e 20 21
e 20 27
e 21 22
e 21 25
e 21 26
e 21 27
e 21 29
e 21 30
e 22 23
e 22 24
e 22 25
e 22 26
e 22 30
e 23 24
e 23 27
e 24 25
e 24 28
e 24 30
e 25 26
e 25 28
e 25 29
e 26 29
e 27 28
e 27 29
e 27 30
e 28 29